38497239441499522995011,9,1,2,08,3,1,2,011,14,1,2,010,2,1,2,07,15,1,2,07,5,1,2,05,1,1,2,014,2,1,2,07,8,1,2,011,14,1,2,09,5,1,2,012,15,1,2,04,13,1,2,02,13,1,2,015,13,1,2,09,9,1,2,04,5,1,2,01,11,1,2,015,14,1,2,013,6,1,2,04,14,1,2,011,3,1,2,02,4,1,2,07,10,1,2,010,5,1,2,07,1,1,2,011,4,1,2,06,2,1,2,01,12,1,2,09,2,1,2,02,14,1,2,08,2,1,2,02,11,1,2,013,3,1,2,01,3,1,2,03,12,1,2,01,7,1,2,09,9,1,2,05,9,1,2,015,2,1,2,010,5,1,2,09,1,1,2,010,6,1,2,06,5,1,2,012,9,1,2,011,2,1,2,011,11,1,2,08,2,1,2,011,1,1,2,09,7,1,2,0